NAME: A-n5-f2
COMMENT : -
TYPE : GVRP
DIMENSION : 6
EDGE_WEIGHT_TYPE : EUC_2D
CAPACITY : 100
AUTONOMY : 56
TIME LIMIT : 11
SPEED : 40.0
FUEL CONSUMPTION : 1.0
DEPOT_COORD_SECTION
0 82 76
CUSTOMER_COORD_SECTION
1 49 8 19 0.85694610733784
2 5 10 21 0.08970511514036483
3 85 60 6 0.6841810818476582
4 98 5 19 0.08796542395802787
AFS_COORD_SECTION
5 30 18 0.26013797564266106
6 86 27 0.9463613911748943
EOF